115 300 179 120 120 145 103 122 115 107 118 138 193 159 115 110 191 168 145 191 148 136 164 187 160 189 168 161 127 129 181 175 103 159 195 190 171 164 112 186 171 130 190 129 190 104 105 180 172 150 137 186 152 100 138 111 155 105 173 182 135 119 156 104 145 116 194 115 180 105 167 116 102 156 111 158 126 116 103 164 132 140 149 184 106 188 162 162 159 100 109 160 119 132 164 164 148 124 145 195 196 111 177 198 133 189 121 159 171 125 122 103 131 138 153 138 192 